(set-logic ALL)
(declare-fun i1 () Int)
(declare-fun it1238 () Int)
(declare-fun it1239 () Int)
(declare-fun i2 () Int)
(declare-fun i3 () Int)
(declare-fun it1240 () Int)
(declare-fun i4 () Int)
(declare-fun it1241 () Int)
(declare-fun it1242 () Int)
(declare-fun i5 () Int)
(declare-fun i6 () Int)
(declare-fun it1243 () Int)
(declare-fun i7 () Int)
(declare-fun it1244 () Int)
(declare-fun it1245 () Int)
(declare-fun it1246 () Int)
(declare-fun it1247 () Int)
(declare-fun it1248 () Int)
(declare-fun it1249 () Int)
(declare-fun it1250 () Int)
(declare-fun it1251 () Int)
(declare-fun it1638 () Int)
(declare-fun it1639 () Int)
(declare-fun it1640 () Int)
(declare-fun it1641 () Int)
(declare-fun it1642 () Int)
(declare-fun it1643 () Int)
(declare-fun it1644 () Int)
(declare-fun it1645 () Int)
(declare-fun it1646 () Int)
(declare-fun it1647 () Int)
(declare-fun it1648 () Int)
(declare-fun it1649 () Int)
(declare-fun it1650 () Int)
(declare-fun it1651 () Int)
(declare-fun it1745 () Int)
(declare-fun it1746 () Int)
(declare-fun it1747 () Int)
(declare-fun it1748 () Int)
(declare-fun it1749 () Int)
(declare-fun it1750 () Int)
(declare-fun it1751 () Int)
(declare-fun it1752 () Int)
(declare-fun it1753 () Int)
(declare-fun it1754 () Int)
(declare-fun it1755 () Int)
(declare-fun it1756 () Int)
(declare-fun it1757 () Int)
(declare-fun it1758 () Int)
(declare-fun it1759 () Int)
(declare-fun it1760 () Int)
(declare-fun it1761 () Int)
(declare-fun it1762 () Int)
(declare-fun it1763 () Int)
(declare-fun it1764 () Int)
(declare-fun it1765 () Int)
(declare-fun it1089 () Int)
(assert (= (+ i1 (- 1)) 0))
(assert (= (+ it1238 (- 5)) 0))
(assert (= (+ (* i2 (- 1)) it1239 (- 4)) 0))
(assert (= (+ it1240 (* i3 (- 1))) 0))
(assert (= (+ it1241 (* i4 (- 1))) 0))
(assert (= (+ (* i5 (- 1)) it1242) 0))
(assert (= (+ it1243 (* i6 (- 1))) 0))
(assert (= (+ it1244 (* i7 (- 1))) 0))
(assert (and (= (+ it1238 (- 5)) 0) (> (+ it1241 (- 2)) 0)))
(assert (= (+ it1245 (- 18)) 0))
(assert (= (+ (* it1239 (- 1)) it1246 (- 12)) 0))
(assert (= (+ (* it1240 (- 1)) it1247) 0))
(assert (= (+ (* it1241 (- 1)) it1248) 0))
(assert (= (+ it1249 (* it1242 (- 1))) 0))
(assert (= it1250 0))
(assert (= (+ (* it1244 (- 1)) it1251) 0))
(assert (and (= (+ it1245 (- 18)) 0) (<= (+ it1250 (* it1248 (- 1)) 2) 0)))
(assert (= (+ it1638 (- 20)) 0))
(assert (= (+ it1639 (* it1246 (- 1)) (- 2)) 0))
(assert (= (+ (* it1247 (- 1)) it1640) 0))
(assert (= (+ it1641 (* it1248 (- 1))) 0))
(assert (= it1642 0))
(assert (= (+ it1643 (* it1250 (- 1))) 0))
(assert (= (+ it1644 (* it1251 (- 1))) 0))
(assert (and (= (+ it1638 (- 20)) 0) (<= (+ it1643 (* it1641 (- 1)) (* it1642 2) 3) 0)))
(assert (= (+ it1645 (- 21)) 0))
(assert (= (+ (* it1639 (- 1)) it1646 (- 1)) 0))
(assert (= (+ (* it1640 (- 1)) it1647) 0))
(assert (= (+ (* it1641 (- 1)) it1648) 0))
(assert (= (+ it1649 (* it1642 (- 1))) 0))
(assert (= (+ (* it1643 (- 1)) it1650) 0))
(assert (= (+ (* it1644 (- 1)) it1651) 0))
(assert (and (< (+ (* it1649 2) it1650 (* it1648 (- 1)) 3) 0) (= (+ it1645 (- 21)) 0)))
(assert (= (+ it1745 (- 24)) 0))
(assert (= (+ (* it1646 (- 1)) it1746 (- 1)) 0))
(assert (= (+ it1747 (* it1647 (- 1))) 0))
(assert (= (+ it1748 (* it1648 (- 1))) 0))
(assert (= (+ (* it1649 (- 1)) it1749) 0))
(assert (= (+ it1750 (* it1650 (- 1))) 0))
(assert (= (+ it1751 (* it1651 (- 1))) 0))
(assert (= (+ it1745 (- 24)) 0))
(assert (= (+ it1752 (- 26)) 0))
(assert (= (+ (* it1746 (- 1)) it1753 (- 2)) 0))
(assert (= (+ (* it1747 (- 1)) it1754) 0))
(assert (= (+ (* it1748 (- 1)) it1755) 0))
(assert (= (+ (* it1749 (- 1)) it1756) 0))
(assert (= (+ (* it1750 (- 1)) it1757) 0))
(assert (= (+ it1758 (* it1749 (- 2)) (- 2)) 0))
(assert (= (+ it1752 (- 26)) 0))
(assert (= (+ it1759 (- 20)) 0))
(assert (= (+ it1760 (* it1753 (- 1)) (- 1)) 0))
(assert (= (+ (* it1754 (- 1)) it1761) 0))
(assert (= (+ (* it1755 (- 1)) it1762) 0))
(assert (= (+ it1763 (* it1755 (- 1))) 0))
(assert (= (+ (* it1757 (- 1)) it1764) 0))
(assert (= (+ (* it1758 (- 1)) it1765) 0))
(assert (let ((a!1 (+ (+ 0 (* it1764 (- 1)))
              (* (+ 0 it1763) (exp 2 (+ it1089 (- 1))) (+ 0 (- 2)))
              (* (exp 2 (+ it1089 (- 1))) (+ 0 (- 2)))
              (+ 0 it1762)
              (+ 0 (- 1)))))
  (and (> a!1 (+ 0 0))
       (>= (+ (* it1759 (- 1)) 20) 0)
       (>= (+ it1759 (- 20)) 0)
       (>= a!1 (+ 0 0))
       (>= (+ (* it1763 (- 2)) (* it1764 (- 1)) it1762 (- 3)) 0)
       (> (+ (* it1763 (- 2)) (* it1764 (- 1)) it1762 (- 3)) 0)
       (>= (+ it1089 (- 1)) 0))))
(check-sat)
